Route #1: 1 1 18 36 4 41 28 19 54 50 1 
Route #2: 1 44 6 40 45 1 
Route #3: 1 43 47 38 16 39 9 35 1 
Route #4: 1 48 25 27 13 52 24 1 
Route #5: 1 23 29 22 7 31 26 17 1 
Route #6: 1 32 37 14 46 33 2 10 1 
Route #7: 1 5 11 51 20 42 8 12 1 
Route #8: 1 49 34 3 21 1 
Route #9: 1 53 15 30 1 

Cost 1831.43
Time 0.4469


 * Another infos *

 Iterations: 55 Time: 0.4469 sec - 0.0074 min - 0.0001 horas
0.0000 h 0.0074 min
Problem dimension: 55
